36
10
0 12 13 15 19 21 27 28 29 34 35
1 12 14 16 22 23 24 26 27 28 29 34 35
2 11 13 14 24 26 27 28 30 32 33 34 35
3 10 13 14 15 24 25 27 29 32 33 34 35
4 15 18 20 21 27 29 33 34
5 10 11 12 18 24 28 29 30 33 34 35
6 10 11 14 15 18 21 23 24 25 28 30 31 35
7 14 16
8 15 17 18 20
9 12
